************************************************
* Input file for program FUE                   *
* DOCTYPE ATSW-interface SYSTEM                *
************************************************

** Frequency of time series: either 1(A), 4(Q) or 12(M):
 12
** Number of observations and starting date of time series:
 188  1 2010 Moncloa
** Number of deterministic variables (including seasonal components):
0
** Number and orders of regular AR operators:
1 1
**
-0.613801  1
** Number and orders of annual AR operators:
0
** Number and orders of regular MA operators:
1 2
**
0.861204  1
0.087594  1
** Number and orders of anual MA operators:
0
** Number and frequencies of regular AR(2) operators with fixed frequency:
0
** Number and frequencies of regular MA(2) operators with fixed frequency:
0
** Mean parameter (mu):
0
** Box-Cox lambda, m. Regular differences and complete annual differences:
 0.00  2  0
** Individual factors of the annual difference (starting at freq 0.0):
0 0 0 0 0 0 0
** ACF/PACF bands (0 Automatic) and reescaling factor:
 0 100.00
** Time series (stochastic and non-standard deterministic variables):
3846.0 
3832.0 
3909.0 
3878.0 
3877.0 
3818.0 
3827.0 
3690.0 
3715.0 
3671.0 
3735.0 
3696.0 
3684.0 
3649.0 
3686.0 
3643.0 
3635.0 
3584.0 
3571.0 
3535.0 
3549.0 
3537.0 
3541.0 
3487.0 
3478.0 
3445.0 
3434.0 
3413.0 
3337.0 
3339.0 
3339.0 
3312.0 
3302.0 
3304.0 
3234.0 
3187.0 
3173.0 
3182.0 
3150.0 
3102.0 
3091.0 
3079.0 
3066.0 
3055.0 
3072.0 
3080.0 
3082.0 
3061.0 
3053.0 
3041.0 
3038.0 
3042.0 
3030.0 
3025.0 
3029.0 
3011.0 
3015.0 
3035.0 
3040.0 
3030.0 
3001.0 
2991.0 
3013.0 
3013.0 
3047.0 
3059.0 
3073.0 
3066.0 
3074.0 
3082.0 
3088.0 
3084.0 
3092.0 
3101.0 
3135.0 
3147.0 
3157.0 
3153.0 
3151.0 
3157.0 
3192.0 
3190.0 
3183.0 
3201.0 
3250.0 
3262.0 
3296.0 
3348.0 
3373.0 
3354.0 
3397.0 
3405.0 
3438.0 
3467.0 
3498.0 
3553.0 
3612.0 
3735.0 
3729.0 
3716.0 
3732.0 
3740.0 
3755.0 
3784.0 
3796.0 
3797.0 
3792.0 
3802.0 
3843.0 
3893.0 
3927.0 
3913.0 
3939.0 
3903.0 
3934.0 
3921.0 
3897.0 
3927.0 
3950.0 
3950.0 
3930.0 
3950.0 
3943.0 
3926.0 
3912.0 
3903.0 
3913.0 
3901.0 
3931.0 
3909.0 
3905.0 
3888.0 
3896.0 
3969.0 
3967.0 
3981.0 
4002.0 
4001.0 
4019.0 
4008.0 
4031.0 
4027.0 
4051.0 
4088.0 
4102.0 
4107.0 
4135.0 
4178.0 
4203.0 
4212.0 
4187.0 
4209.0 
4227.0 
4281.0 
4299.0 
4287.0 
4282.0 
4343.0 
4348.0 
4397.0 
4406.0 
4413.0 
4365.0 
4391.0 
4417.0 
4485.0 
4537.0 
4587.0 
4611.0 
4673.0 
4700.0 
4768.5 
4837.0 
4876.0 
4904.0 
5011.0 
5030.0 
5095.0 
5147.0 
5323.0 
5331.0 
5391.0 
5500.0 
5596.0 
5691.0 
5811.0 
5876.0 
6011.0 
