************************************************
* Input file for program FUE                   *
* DOCTYPE ATSW-interface SYSTEM                *
************************************************

** Frequency of time series: either 1(A), 4(Q) or 12(M):
 12
** Number of observations and starting date of time series:
 188  1 2010 Villaverde
** Number of deterministic variables (including seasonal components):
 0
**Number and orders of regular AR operators:
 0
** Number and orders of annual AR operators:
 0
** Number and orders of regular MA operators:
 0
** Number and orders of anual MA operators:
 0
** Number and frequencies of regular AR(2) operators with fixed frequency:
 0
** Number and frequencies of regular MA(2) operators with fixed frequency:
 0
** Mean parameter (mu):
0
** Box-Cox lambda, regular differences and complete annual differences:
1.00 0 0
** Individual factors of the annual difference (from freq 0.0): 
 0 0 0 0 0 0 0
** ACF/PACF bands (0 Automatic) and reescaling factor: 
 0 100.00
** Time series (stochastic and non-standard deterministic variables): 
2207.0 
2222.0 
2246.0 
2333.0 
2254.0 
2242.0 
2237.0 
2215.0 
2207.0 
2222.0 
2225.0 
2195.0 
2157.0 
2146.0 
2099.0 
2058.0 
2047.0 
2024.0 
2000.0 
1953.0 
1901.0 
1883.0 
1908.0 
1899.0 
1889.0 
1875.0 
1884.0 
1819.0 
1814.0 
1811.0 
1695.0 
1663.0 
1660.0 
1637.0 
1579.0 
1546.0 
1519.0 
1506.0 
1484.0 
1467.0 
1510.0 
1502.0 
1515.0 
1491.0 
1499.0 
1495.0 
1478.0 
1438.0 
1364.0 
1335.0 
1276.0 
1277.0 
1303.0 
1280.0 
1265.0 
1250.0 
1252.0 
1252.0 
1343.0 
1365.0 
1384.0 
1388.0 
1371.0 
1386.0 
1344.0 
1386.0 
1399.0 
1347.0 
1336.0 
1379.0 
1387.0 
1356.0 
1353.0 
1354.0 
1333.0 
1366.0 
1383.0 
1375.0 
1392.0 
1399.0 
1400.0 
1386.0 
1426.0 
1486.0 
1459.0 
1461.0 
1461.0 
1466.0 
1445.0 
1451.0 
1473.0 
1479.0 
1461.0 
1468.0 
1451.0 
1417.0 
1452.0 
1491.0 
1499.0 
1626.0 
1622.0 
1642.0 
1663.0 
1672.0 
1685.0 
1656.0 
1660.0 
1662.0 
1703.0 
1711.0 
1724.0 
1749.0 
1760.0 
1739.0 
1744.0 
1735.0 
1748.0 
1750.0 
1736.0 
1765.0 
1777.0 
1766.0 
1758.0 
1751.0 
1767.0 
1756.0 
1751.0 
1744.0 
1749.0 
1750.0 
1745.0 
1718.0 
1707.0 
1738.0 
1742.0 
1705.0 
1726.0 
1728.0 
1727.0 
1714.0 
1705.0 
1701.0 
1705.0 
1699.0 
1698.0 
1713.0 
1728.0 
1742.0 
1766.0 
1798.0 
1832.0 
1847.0 
1828.0 
1832.0 
1843.0 
1847.0 
1856.0 
1869.0 
1862.0 
1885.0 
1912.0 
1926.0 
1947.0 
1950.5 
1954.0 
1961.0 
1937.0 
1963.0 
1982.0 
1977.0 
1988.0 
2032.5 
2077.0 
2070.0 
2090.0 
2125.0 
2122.0 
2167.0 
2204.0 
2252.0 
2207.0 
2254.0 
2294.0 
2362.0 
2459.0 
2555.0 
2652.0 
2630.0 
