************************************************
* Input file for program FUE                   *
* DOCTYPE ATSW-interface SYSTEM                *
************************************************

** Frequency of time series: either 1(A), 4(Q) or 12(M):
 12
** Number of observations and starting date of time series:
 188  1 2010 Salamanca
** Number of deterministic variables (including seasonal components):
 0
**Number and orders of regular AR operators:
 0
** Number and orders of annual AR operators:
 0
** Number and orders of regular MA operators:
 0
** Number and orders of anual MA operators:
 0
** Number and frequencies of regular AR(2) operators with fixed frequency:
 0
** Number and frequencies of regular MA(2) operators with fixed frequency:
 0
** Mean parameter (mu):
0
** Box-Cox lambda, regular differences and complete annual differences:
1.00 0 0
** Individual factors of the annual difference (from freq 0.0): 
 0 0 0 0 0 0 0
** ACF/PACF bands (0 Automatic) and reescaling factor: 
 0 100.00
** Time series (stochastic and non-standard deterministic variables): 
4714.0 
4706.0 
4704.0 
4686.0 
4728.0 
4735.0 
4751.0 
4744.0 
4709.0 
4669.0 
4723.0 
4654.0 
4654.0 
4634.0 
4641.0 
4622.0 
4598.0 
4598.0 
4594.0 
4496.0 
4449.0 
4449.0 
4470.0 
4432.0 
4416.0 
4389.0 
4359.0 
4315.0 
4208.0 
4180.0 
4189.0 
4178.0 
4154.0 
4150.0 
4159.0 
4175.0 
4168.0 
4171.0 
4146.0 
4119.0 
4088.0 
4062.0 
4035.0 
3994.0 
4022.0 
3991.0 
4029.0 
4036.0 
4059.0 
4040.0 
4061.0 
4052.0 
4024.0 
4063.0 
4078.0 
4077.0 
4126.0 
4123.0 
4133.0 
4131.0 
4132.0 
4105.0 
4113.0 
4178.0 
4199.0 
4213.0 
4200.0 
4288.0 
4277.0 
4299.0 
4327.0 
4335.0 
4319.0 
4322.0 
4300.0 
4302.0 
4287.0 
4318.0 
4322.0 
4337.0 
4381.0 
4394.0 
4409.0 
4509.0 
4547.0 
4589.0 
4561.0 
4559.0 
4616.0 
4713.0 
4822.0 
4872.0 
4883.0 
4915.0 
4974.0 
5098.0 
5163.0 
5236.0 
5309.0 
5348.0 
5388.0 
5459.0 
5570.0 
5620.0 
5589.0 
5654.0 
5704.0 
5684.0 
5697.0 
5749.0 
5742.0 
5800.0 
5805.0 
5817.0 
5781.0 
5770.0 
5760.0 
5776.0 
5756.0 
5757.0 
5775.0 
5750.0 
5779.0 
5787.0 
5816.0 
5816.0 
5763.0 
5694.0 
5690.0 
5722.0 
5671.0 
5634.0 
5637.0 
5687.0 
5743.0 
5744.0 
5781.0 
5855.0 
5937.0 
5924.0 
5952.0 
5936.0 
5915.0 
5941.0 
5990.0 
6052.0 
6153.0 
6268.0 
6354.0 
6413.0 
6434.0 
6449.0 
6469.0 
6470.0 
6457.0 
6422.0 
6408.0 
6426.0 
6487.0 
6489.0 
6532.0 
6627.0 
6654.0 
6696.0 
6738.0 
6824.0 
6924.0 
7044.0 
7186.0 
7253.0 
7374.0 
7522.5 
7671.0 
7846.0 
7990.0 
8057.0 
8292.0 
8458.0 
8642.0 
8818.0 
8993.0 
9067.0 
9374.0 
9589.0 
9687.0 
9818.0 
9926.0 
9868.0 
