************************************************
* Input file for program FUE                   *
* DOCTYPE ATSW-interface SYSTEM                *
************************************************

** Frequency of time series: either 1(A), 4(Q) or 12(M):
 12
** Number of observations and starting date of time series:
 216  1 2002 IPC_ES_SA
** Number of deterministic variables (including seasonal components):
 0
**Number and orders of regular AR operators:
 0
** Number and orders of annual AR operators:
 0
** Number and orders of regular MA operators:
 0
** Number and orders of anual MA operators:
 0
** Number and frequencies of regular AR(2) operators with fixed frequency:
 0
** Number and frequencies of regular MA(2) operators with fixed frequency:
 0
** Mean parameter (mu):
0
** Box-Cox lambda, regular differences and complete annual differences:
1.00 0 0
** Individual factors of the annual difference (from freq 0.0): 
 0 0 0 0 0 0 0
** ACF/PACF bands (0 Automatic) and reescaling factor: 
 0 100.00
** Time series (stochastic and non-standard deterministic variables): 
70.1928 
70.4912 
70.8039 
70.9868 
70.9916 
71.0712 
71.2434 
71.5121 
71.7633 
71.8194 
72.1337 
72.6636 
72.89 
73.1033 
73.033 
72.8915 
72.942 
73.0725 
73.3761 
73.5968 
73.6237 
73.8078 
74.0115 
74.3384 
74.4463 
74.6675 
75.0073 
75.3729 
75.4941 
75.5291 
75.8296 
75.9672 
76.2618 
76.3952 
76.4004 
76.6288 
76.9034 
77.2032 
77.6087 
77.6783 
77.8613 
78.0127 
78.3211 
78.8046 
78.9418 
79.0015 
79.2545 
79.8412 
79.9587 
80.2041 
80.6014 
80.8103 
80.9346 
81.1059 
81.2356 
81.1047 
80.9217 
81.0605 
81.3674 
81.7507 
81.8872 
82.1803 
82.5637 
82.7069 
82.8611 
82.9247 
83.0025 
83.2776 
83.8228 
84.3594 
84.8013 
85.2463 
85.4639 
85.8794 
86.0204 
86.5132 
87.0136 
87.2984 
87.0726 
87.0571 
86.8035 
86.3696 
86.0167 
85.9345 
86.0288 
85.8271 
85.883 
85.7662 
86.1463 
86.1032 
86.366 
86.1651 
86.2299 
86.6313 
86.7001 
86.8183 
86.7459 
87.0418 
87.1753 
87.28 
87.4383 
87.7526 
87.9355 
87.9993 
88.2406 
88.6525 
89.2902 
89.6569 
89.8597 
90.1712 
90.4697 
90.3482 
90.2231 
90.4668 
90.5393 
90.7635 
90.8997 
91.1991 
91.4131 
91.4485 
91.6339 
91.8832 
92.3334 
92.1037 
91.9339 
92.4631 
92.9426 
93.8605 
94.0587 
93.8711 
94.0351 
93.9021 
94.1576 
94.1135 
93.6127 
93.69 
93.8306 
94.1035 
94.3547 
94.1812 
93.9651 
94.089 
94.2722 
94.0886 
94.1415 
93.9758 
93.9562 
93.883 
93.9111 
93.7826 
93.8897 
94.0359 
93.8755 
93.7388 
93.2899 
92.8471 
93.1308 
93.352 
93.3598 
93.7109 
93.9638 
93.8468 
93.4938 
93.209 
93.2122 
93.482 
93.3068 
92.5801 
92.345 
92.5673 
92.3752 
92.786 
93.2169 
93.2893 
93.3686 
93.3754 
93.8446 
94.1139 
94.7703 
95.334 
95.0856 
94.6871 
94.7337 
94.5812 
94.6243 
94.7342 
94.8809 
95.0492 
95.3186 
95.6813 
95.8242 
95.8822 
96.1063 
95.8365 
95.7562 
96.5216 
96.7766 
96.8618 
96.9575 
97.197 
97.4747 
97.2944 
96.9589 
96.8213 
97.1543 
97.1184 
97.2127 
97.3033 
97.1913 
97.3722 
97.2752 
97.2782 
97.6002 
97.6915 
97.723 
97.8834 
