************************************************
* Input file for program FUE                   *
* DOCTYPE ATSW-interface SYSTEM                *
************************************************

** Frequency of time series: either 1(A), 4(Q) or 12(M):
 12
** Number of observations and starting date of time series:
 216  1 2002 IPC_US
** Number of deterministic variables (including seasonal components):
 0
**Number and orders of regular AR operators:
 0
** Number and orders of annual AR operators:
 0
** Number and orders of regular MA operators:
 0
** Number and orders of anual MA operators:
 0
** Number and frequencies of regular AR(2) operators with fixed frequency:
 0
** Number and frequencies of regular MA(2) operators with fixed frequency:
 0
** Mean parameter (mu):
0
** Box-Cox lambda, regular differences and complete annual differences:
1.00 0 0
** Individual factors of the annual difference (from freq 0.0): 
 0 0 0 0 0 0 0
** ACF/PACF bands (0 Automatic) and reescaling factor: 
 0 100.00
** Time series (stochastic and non-standard deterministic variables): 
177.7 
178.0 
178.5 
179.3 
179.5 
179.6 
180.0 
180.5 
180.8 
181.2 
181.5 
181.8 
182.6 
183.6 
183.9 
183.2 
182.9 
183.1 
183.7 
184.5 
185.1 
184.9 
185.0 
185.5 
186.3 
186.7 
187.1 
187.4 
188.2 
188.9 
189.1 
189.2 
189.8 
190.8 
191.7 
191.7 
191.6 
192.4 
193.1 
193.7 
193.6 
193.7 
194.9 
196.1 
198.8 
199.1 
198.1 
198.1 
199.3 
199.4 
199.7 
200.7 
201.3 
201.8 
202.9 
203.8 
202.8 
201.9 
202.0 
203.1 
203.437 
204.226 
205.288 
205.904 
206.755 
207.234 
207.603 
207.667 
208.547 
209.19 
210.834 
211.445 
212.174 
212.687 
213.448 
213.942 
215.208 
217.463 
219.016 
218.69 
218.877 
216.995 
213.153 
211.398 
211.933 
212.705 
212.495 
212.709 
213.022 
214.79 
214.726 
215.445 
215.861 
216.509 
217.234 
217.347 
217.488 
217.281 
217.353 
217.403 
217.29 
217.199 
217.605 
217.923 
218.275 
219.035 
219.59 
220.472 
221.187 
221.898 
223.046 
224.093 
224.806 
224.806 
225.395 
226.106 
226.597 
226.75 
227.169 
227.223 
227.842 
228.329 
228.807 
229.187 
228.713 
228.524 
228.59 
229.918 
231.015 
231.638 
231.249 
231.221 
231.679 
232.937 
232.282 
231.797 
231.893 
232.445 
232.9 
233.456 
233.544 
233.669 
234.1 
234.719 
235.288 
235.547 
236.028 
236.468 
236.918 
237.231 
237.498 
237.46 
237.477 
237.43 
236.983 
236.252 
234.747 
235.342 
235.976 
236.222 
237.001 
237.657 
238.034 
238.033 
237.498 
237.733 
238.017 
237.761 
237.652 
237.336 
238.08 
238.992 
239.557 
240.222 
240.101 
240.545 
241.176 
241.741 
242.026 
242.637 
243.618 
244.006 
243.892 
244.193 
244.004 
244.163 
244.243 
245.183 
246.435 
246.626 
247.284 
247.805 
248.859 
249.529 
249.577 
250.227 
250.792 
251.018 
251.214 
251.663 
252.182 
252.772 
252.594 
252.767 
252.561 
253.319 
254.277 
255.233 
255.296 
255.213 
255.802 
256.036 
256.43 
257.155 
257.879 
258.63 
