************************************************
* Input file for program FUE                   *
* DOCTYPE ATSW-interface SYSTEM                *
************************************************

** Frequency of time series: either 1(A), 4(Q) or 12(M):
 12
** Number of observations and starting date of time series:
 216  1 2002 IPC_DE
** Number of deterministic variables (including seasonal components):
 0
**Number and orders of regular AR operators:
 0
** Number and orders of annual AR operators:
 0
** Number and orders of regular MA operators:
 0
** Number and orders of anual MA operators:
 0
** Number and frequencies of regular AR(2) operators with fixed frequency:
 0
** Number and frequencies of regular MA(2) operators with fixed frequency:
 0
** Mean parameter (mu):
0
** Box-Cox lambda, regular differences and complete annual differences:
1.00 0 0
** Individual factors of the annual difference (from freq 0.0): 
 0 0 0 0 0 0 0
** ACF/PACF bands (0 Automatic) and reescaling factor: 
 0 100.00
** Time series (stochastic and non-standard deterministic variables): 
82.59388 
82.78138 
82.96888 
83.06263 
82.96888 
82.96888 
83.15638 
83.15638 
83.15638 
83.25013 
83.06263 
83.25013 
83.62513 
83.71888 
84.00013 
83.71888 
83.62513 
83.81263 
83.81263 
84.00013 
84.00013 
84.28138 
84.09388 
84.09388 
84.65638 
84.65638 
84.84388 
85.12514 
85.31264 
85.31264 
85.40639 
85.68764 
85.68764 
85.87514 
85.68764 
85.96889 
85.87514 
85.96889 
86.25014 
86.25014 
86.25014 
86.43764 
86.62514 
86.90639 
87.09389 
87.28139 
87.09389 
87.18764 
87.37514 
87.56264 
87.46889 
87.84389 
87.93764 
88.03139 
88.12514 
88.21889 
88.03139 
88.21889 
88.31264 
88.50014 
88.96889 
89.15639 
89.25014 
89.53139 
89.62514 
89.71889 
90.00014 
90.00014 
90.37514 
90.65639 
91.31264 
91.31264 
91.59389 
91.68764 
91.87514 
91.87514 
92.34389 
92.71889 
92.90639 
92.81264 
92.90639 
92.81264 
92.53139 
92.34389 
92.43764 
92.62514 
92.34389 
92.34389 
92.43764 
92.81264 
92.53139 
92.81264 
92.71889 
92.81264 
92.90639 
93.09389 
93.18764 
93.18764 
93.46889 
93.75014 
93.75014 
93.75014 
93.65639 
93.75014 
93.84389 
94.03139 
94.12514 
94.40639 
94.7814 
94.87515 
95.3439 
95.62515 
95.7189 
95.62515 
95.7189 
95.81265 
96.18765 
96.18765 
96.37515 
96.2814 
96.6564 
97.0314 
97.4064 
97.4064 
97.4064 
97.31265 
97.50015 
97.7814 
98.06265 
98.1564 
98.1564 
98.1564 
98.3439 
98.62515 
98.62515 
98.7189 
99.00015 
99.18765 
99.37515 
99.2814 
99.4689 
99.2814 
99.4689 
99.56266 
99.65641 
99.84391 
99.84391 
99.93766 
99.84391 
99.93766 
100.1252 
100.2189 
100.3127 
100.1252 
100.0314 
99.75016 
99.37515 
99.67508 
99.97501 
100.075 
100.2749 
100.175 
100.075 
100.075 
99.97501 
100.075 
100.2749 
99.97501 
99.87503 
99.87503 
100.075 
100.2749 
100.3749 
100.4749 
100.4749 
100.4749 
100.6748 
100.8748 
100.9748 
101.3747 
101.4746 
101.6746 
101.5746 
101.6746 
101.6746 
101.7746 
101.8745 
102.0745 
102.1745 
102.0745 
102.5744 
102.7743 
102.8743 
102.8743 
102.9743 
103.1742 
103.5741 
103.6741 
103.6741 
103.974 
104.3739 
104.5739 
104.6738 
104.3739 
104.2739 
104.3739 
104.5739 
105.0737 
105.2737 
105.2737 
105.3737 
105.4736 
105.5736 
105.6736 
105.7736 
105.9735 
