************************************************
* Input file for program FUE                   *
* DOCTYPE ATSW-interface SYSTEM                *
************************************************

** Frequency of time series: either 1(A), 4(Q) or 12(M):
 12
** Number of observations and starting date of time series:
 188  1 2010 Retiro
** Number of deterministic variables (including seasonal components):
 0
**Number and orders of regular AR operators:
 0
** Number and orders of annual AR operators:
 0
** Number and orders of regular MA operators:
 0
** Number and orders of anual MA operators:
 0
** Number and frequencies of regular AR(2) operators with fixed frequency:
 0
** Number and frequencies of regular MA(2) operators with fixed frequency:
 0
** Mean parameter (mu):
0
** Box-Cox lambda, regular differences and complete annual differences:
1.00 0 0
** Individual factors of the annual difference (from freq 0.0): 
 0 0 0 0 0 0 0
** ACF/PACF bands (0 Automatic) and reescaling factor: 
 0 100.00
** Time series (stochastic and non-standard deterministic variables): 
3959.0 
3968.0 
4015.0 
4071.0 
4041.0 
4036.0 
4019.0 
3957.0 
3959.0 
3986.0 
3922.0 
3871.0 
3881.0 
3884.0 
3883.0 
3861.0 
3854.0 
3832.0 
3788.0 
3760.0 
3697.0 
3699.0 
3649.0 
3619.0 
3620.0 
3597.0 
3608.0 
3553.0 
3496.0 
3459.0 
3466.0 
3440.0 
3437.0 
3432.0 
3413.0 
3366.0 
3368.0 
3348.0 
3332.0 
3312.0 
3297.0 
3281.0 
3241.0 
3227.0 
3240.0 
3199.0 
3194.0 
3183.0 
3174.0 
3183.0 
3183.0 
3193.0 
3189.0 
3225.0 
3223.0 
3122.0 
3099.0 
3090.0 
3090.0 
3085.0 
3125.0 
3130.0 
3199.0 
3308.0 
3305.0 
3309.0 
3329.0 
3320.0 
3307.0 
3307.0 
3324.0 
3320.0 
3322.0 
3332.0 
3334.0 
3333.0 
3344.0 
3373.0 
3378.0 
3378.0 
3393.0 
3379.0 
3371.0 
3437.0 
3441.0 
3449.0 
3482.0 
3502.0 
3559.0 
3653.0 
3692.0 
3755.0 
3806.0 
3870.0 
3931.0 
4030.0 
4083.0 
4167.0 
4233.0 
4386.0 
4534.0 
4549.0 
4522.0 
4467.0 
4457.0 
4474.0 
4508.0 
4544.0 
4597.0 
4657.0 
4669.0 
4649.0 
4629.0 
4621.0 
4594.0 
4571.0 
4534.0 
4584.0 
4583.0 
4538.0 
4599.0 
4577.0 
4557.0 
4559.0 
4586.0 
4511.0 
4475.0 
4475.0 
4504.0 
4469.0 
4490.0 
4495.0 
4497.0 
4544.0 
4550.0 
4551.0 
4619.0 
4652.0 
4660.0 
4669.0 
4705.0 
4711.0 
4709.0 
4657.0 
4644.0 
4731.0 
4810.0 
4865.0 
4929.0 
4881.0 
4923.0 
4868.0 
4945.0 
4998.0 
5001.0 
5004.0 
5000.0 
4970.0 
4936.0 
4908.0 
4998.0 
5061.0 
5002.0 
5060.0 
5118.0 
5113.0 
5095.0 
5174.0 
5206.0 
5329.0 
5447.0 
5428.5 
5410.0 
5549.0 
5780.0 
5900.0 
6019.0 
6085.0 
6333.0 
6549.0 
6708.0 
6861.0 
7014.0 
7208.0 
7286.0 
7295.0 
7486.0 
7770.0 
